(set-logic QF_BV)

(declare-const __ESBMC_ptr_obj_start_0 (_ BitVec 64))

(declare-const __ESBMC_ptr_obj_end_0 (_ BitVec 64))

(declare-const __ESBMC_ptr_obj_start_1 (_ BitVec 64))

(declare-const __ESBMC_ptr_obj_end_1 (_ BitVec 64))

(declare-const |smt_conv::__ESBMC_ptr_addr_range_0..start0| (_ BitVec 64))

(declare-const |smt_conv::__ESBMC_ptr_addr_range_0..end0| (_ BitVec 64))

(declare-const |smt_conv::__ESBMC_ptr_addr_range_1..start0| (_ BitVec 64))

(declare-const |smt_conv::__ESBMC_ptr_addr_range_1..end0| (_ BitVec 64))

(declare-const |smt_conv::smt_conv::collate_array_vals::3..start0| (_ BitVec 64))

(declare-const |smt_conv::smt_conv::collate_array_vals::3..end0| (_ BitVec 64))

(declare-const |smt_conv::smt_conv::collate_array_vals::4..start0| (_ BitVec 64))

(declare-const |smt_conv::smt_conv::collate_array_vals::4..end0| (_ BitVec 64))

(declare-const |smt_conv::smt_conv::collate_array_vals::7..start0| (_ BitVec 64))

(declare-const |smt_conv::smt_conv::collate_array_vals::7..end0| (_ BitVec 64))

(declare-const |c:@F@main::$tmp::return_value$___VERIFIER_nondet_int$1?1!0&0#1| (_ BitVec 32))

(declare-const |nondet$symex::nondet27| (_ BitVec 32))

(declare-const |goto_symex::guard?0!0&0#1| (_ BitVec 1))

(declare-const |c:@r1&0#2| (_ BitVec 8))

(declare-const |nondet$symex::nondet28| (_ BitVec 8))

(declare-const |c:@id1&0#2| (_ BitVec 8))

(declare-const |nondet$symex::nondet29| (_ BitVec 8))

(declare-const |c:@st1&0#2| (_ BitVec 8))

(declare-const |nondet$symex::nondet30| (_ BitVec 8))

(declare-const |c:@send1&0#2| (_ BitVec 8))

(declare-const |nondet$symex::nondet31| (_ BitVec 8))

(declare-const |c:@mode1&0#2| (_ BitVec 1))

(declare-const |nondet$symex::nondet32| (_ BitVec 1))

(declare-const |c:@id2&0#2| (_ BitVec 8))

(declare-const |nondet$symex::nondet33| (_ BitVec 8))

(declare-const |c:@st2&0#2| (_ BitVec 8))

(declare-const |nondet$symex::nondet34| (_ BitVec 8))

(declare-const |c:@send2&0#2| (_ BitVec 8))

(declare-const |nondet$symex::nondet35| (_ BitVec 8))

(declare-const |c:@mode2&0#2| (_ BitVec 1))

(declare-const |nondet$symex::nondet36| (_ BitVec 1))

(declare-const |c:@id3&0#2| (_ BitVec 8))

(declare-const |nondet$symex::nondet37| (_ BitVec 8))

(declare-const |c:@st3&0#2| (_ BitVec 8))

(declare-const |nondet$symex::nondet38| (_ BitVec 8))

(declare-const |c:@send3&0#2| (_ BitVec 8))

(declare-const |nondet$symex::nondet39| (_ BitVec 8))

(declare-const |c:@mode3&0#2| (_ BitVec 1))

(declare-const |nondet$symex::nondet40| (_ BitVec 1))

(declare-const |c:@id4&0#2| (_ BitVec 8))

(declare-const |nondet$symex::nondet41| (_ BitVec 8))

(declare-const |c:@st4&0#2| (_ BitVec 8))

(declare-const |nondet$symex::nondet42| (_ BitVec 8))

(declare-const |c:@send4&0#2| (_ BitVec 8))

(declare-const |nondet$symex::nondet43| (_ BitVec 8))

(declare-const |c:@mode4&0#2| (_ BitVec 1))

(declare-const |nondet$symex::nondet44| (_ BitVec 1))

(declare-const |c:@id5&0#2| (_ BitVec 8))

(declare-const |nondet$symex::nondet45| (_ BitVec 8))

(declare-const |c:@st5&0#2| (_ BitVec 8))

(declare-const |nondet$symex::nondet46| (_ BitVec 8))

(declare-const |c:@send5&0#2| (_ BitVec 8))

(declare-const |nondet$symex::nondet47| (_ BitVec 8))

(declare-const |c:@mode5&0#2| (_ BitVec 1))

(declare-const |nondet$symex::nondet48| (_ BitVec 1))

(declare-const |c:@id6&0#2| (_ BitVec 8))

(declare-const |nondet$symex::nondet49| (_ BitVec 8))

(declare-const |c:@st6&0#2| (_ BitVec 8))

(declare-const |nondet$symex::nondet50| (_ BitVec 8))

(declare-const |c:@send6&0#2| (_ BitVec 8))

(declare-const |nondet$symex::nondet51| (_ BitVec 8))

(declare-const |c:@mode6&0#2| (_ BitVec 1))

(declare-const |nondet$symex::nondet52| (_ BitVec 1))

(declare-const |goto_symex::guard?0!0&0#2| (_ BitVec 1))

(declare-const |goto_symex::guard?0!0&0#3| (_ BitVec 1))

(declare-const |goto_symex::guard?0!0&0#4| (_ BitVec 1))

(declare-const |goto_symex::guard?0!0&0#5| (_ BitVec 1))

(declare-const |goto_symex::guard?0!0&0#6| (_ BitVec 1))

(declare-const |goto_symex::guard?0!0&0#7| (_ BitVec 1))

(declare-const |goto_symex::guard?0!0&0#8| (_ BitVec 1))

(declare-const |goto_symex::guard?0!0&0#9| (_ BitVec 1))

(declare-const |goto_symex::guard?0!0&0#10| (_ BitVec 1))

(declare-const |goto_symex::guard?0!0&0#11| (_ BitVec 1))

(declare-const |goto_symex::guard?0!0&0#12| (_ BitVec 1))

(declare-const |goto_symex::guard?0!0&0#13| (_ BitVec 1))

(declare-const |goto_symex::guard?0!0&0#14| (_ BitVec 1))

(declare-const |goto_symex::guard?0!0&0#15| (_ BitVec 1))

(declare-const |goto_symex::guard?0!0&0#16| (_ BitVec 1))

(declare-const |goto_symex::guard?0!0&0#17| (_ BitVec 1))

(declare-const |goto_symex::guard?0!0&0#18| (_ BitVec 1))

(declare-const |goto_symex::guard?0!0&0#19| (_ BitVec 1))

(declare-const |goto_symex::guard?0!0&0#20| (_ BitVec 1))

(declare-const |goto_symex::guard?0!0&0#21| (_ BitVec 1))

(declare-const |goto_symex::guard?0!0&0#22| (_ BitVec 1))

(declare-const |goto_symex::guard?0!0&0#23| (_ BitVec 1))

(declare-const |goto_symex::guard?0!0&0#24| (_ BitVec 1))

(declare-const |goto_symex::guard?0!0&0#25| (_ BitVec 1))

(declare-const |goto_symex::guard?0!0&0#26| (_ BitVec 1))

(declare-const |goto_symex::guard?0!0&0#27| (_ BitVec 1))

(declare-const |goto_symex::guard?0!0&0#28| (_ BitVec 1))

(declare-const |goto_symex::guard?0!0&0#29| (_ BitVec 1))

(declare-const |goto_symex::guard?0!0&0#30| (_ BitVec 1))

(declare-const |goto_symex::guard?0!0&0#31| (_ BitVec 1))

(declare-const |goto_symex::guard?0!0&0#32| (_ BitVec 1))

(declare-const |goto_symex::guard?0!0&0#33| (_ BitVec 1))

(declare-const |goto_symex::guard?0!0&0#34| (_ BitVec 1))

(declare-const |goto_symex::guard?0!0&0#35| (_ BitVec 1))

(declare-const |goto_symex::guard?0!0&0#36| (_ BitVec 1))

(declare-const |goto_symex::guard?0!0&0#37| (_ BitVec 1))

(declare-const |goto_symex::guard?0!0&0#38| (_ BitVec 1))

(declare-const |goto_symex::guard?0!0&0#39| (_ BitVec 1))

(declare-const |goto_symex::guard?0!0&0#40| (_ BitVec 1))

(declare-const |goto_symex::guard?0!0&0#41| (_ BitVec 1))

(declare-const |c:pals_lcr.6.ufo.UNBOUNDED.pals+Problem12_label01.c@4613@F@init@tmp?1!0&0#3| (_ BitVec 32))

(declare-const |c:pals_lcr.6.ufo.UNBOUNDED.pals+Problem12_label01.c@4613@F@init@tmp?1!0&0#5| (_ BitVec 32))

(declare-const |c:pals_lcr.6.ufo.UNBOUNDED.pals+Problem12_label01.c@4613@F@init@tmp?1!0&0#7| (_ BitVec 32))

(declare-const |c:pals_lcr.6.ufo.UNBOUNDED.pals+Problem12_label01.c@4613@F@init@tmp?1!0&0#9| (_ BitVec 32))

(declare-const |c:pals_lcr.6.ufo.UNBOUNDED.pals+Problem12_label01.c@4613@F@init@tmp?1!0&0#11| (_ BitVec 32))

(declare-const |c:pals_lcr.6.ufo.UNBOUNDED.pals+Problem12_label01.c@4613@F@init@tmp?1!0&0#13| (_ BitVec 32))

(declare-const |c:pals_lcr.6.ufo.UNBOUNDED.pals+Problem12_label01.c@4613@F@init@tmp?1!0&0#15| (_ BitVec 32))

(declare-const |c:pals_lcr.6.ufo.UNBOUNDED.pals+Problem12_label01.c@4613@F@init@tmp?1!0&0#17| (_ BitVec 32))

(declare-const |c:pals_lcr.6.ufo.UNBOUNDED.pals+Problem12_label01.c@4613@F@init@tmp?1!0&0#19| (_ BitVec 32))

(declare-const |c:pals_lcr.6.ufo.UNBOUNDED.pals+Problem12_label01.c@4613@F@init@tmp?1!0&0#21| (_ BitVec 32))

(declare-const |c:pals_lcr.6.ufo.UNBOUNDED.pals+Problem12_label01.c@4613@F@init@tmp?1!0&0#23| (_ BitVec 32))

(declare-const |c:pals_lcr.6.ufo.UNBOUNDED.pals+Problem12_label01.c@4613@F@init@tmp?1!0&0#25| (_ BitVec 32))

(declare-const |c:pals_lcr.6.ufo.UNBOUNDED.pals+Problem12_label01.c@4613@F@init@tmp?1!0&0#27| (_ BitVec 32))

(declare-const |c:pals_lcr.6.ufo.UNBOUNDED.pals+Problem12_label01.c@4613@F@init@tmp?1!0&0#29| (_ BitVec 32))

(declare-const |c:pals_lcr.6.ufo.UNBOUNDED.pals+Problem12_label01.c@4613@F@init@tmp?1!0&0#31| (_ BitVec 32))

(declare-const |c:pals_lcr.6.ufo.UNBOUNDED.pals+Problem12_label01.c@4613@F@init@tmp?1!0&0#33| (_ BitVec 32))

(declare-const |c:pals_lcr.6.ufo.UNBOUNDED.pals+Problem12_label01.c@4613@F@init@tmp?1!0&0#35| (_ BitVec 32))

(declare-const |c:pals_lcr.6.ufo.UNBOUNDED.pals+Problem12_label01.c@4613@F@init@tmp?1!0&0#37| (_ BitVec 32))

(declare-const |c:pals_lcr.6.ufo.UNBOUNDED.pals+Problem12_label01.c@4613@F@init@tmp?1!0&0#39| (_ BitVec 32))

(declare-const |c:pals_lcr.6.ufo.UNBOUNDED.pals+Problem12_label01.c@4613@F@init@tmp?1!0&0#41| (_ BitVec 32))

(declare-const |c:pals_lcr.6.ufo.UNBOUNDED.pals+Problem12_label01.c@4613@F@init@tmp?1!0&0#43| (_ BitVec 32))

(declare-const |c:pals_lcr.6.ufo.UNBOUNDED.pals+Problem12_label01.c@4613@F@init@tmp?1!0&0#45| (_ BitVec 32))

(declare-const |c:pals_lcr.6.ufo.UNBOUNDED.pals+Problem12_label01.c@4613@F@init@tmp?1!0&0#47| (_ BitVec 32))

(declare-const |c:pals_lcr.6.ufo.UNBOUNDED.pals+Problem12_label01.c@4613@F@init@tmp?1!0&0#49| (_ BitVec 32))

(declare-const |c:pals_lcr.6.ufo.UNBOUNDED.pals+Problem12_label01.c@4613@F@init@tmp?1!0&0#51| (_ BitVec 32))

(declare-const |c:pals_lcr.6.ufo.UNBOUNDED.pals+Problem12_label01.c@4613@F@init@tmp?1!0&0#53| (_ BitVec 32))

(declare-const |c:pals_lcr.6.ufo.UNBOUNDED.pals+Problem12_label01.c@4613@F@init@tmp?1!0&0#55| (_ BitVec 32))

(declare-const |c:pals_lcr.6.ufo.UNBOUNDED.pals+Problem12_label01.c@4613@F@init@tmp?1!0&0#57| (_ BitVec 32))

(declare-const |c:pals_lcr.6.ufo.UNBOUNDED.pals+Problem12_label01.c@4613@F@init@tmp?1!0&0#59| (_ BitVec 32))

(declare-const |c:pals_lcr.6.ufo.UNBOUNDED.pals+Problem12_label01.c@4613@F@init@tmp?1!0&0#61| (_ BitVec 32))

(declare-const |c:pals_lcr.6.ufo.UNBOUNDED.pals+Problem12_label01.c@4613@F@init@tmp?1!0&0#63| (_ BitVec 32))

(declare-const |c:pals_lcr.6.ufo.UNBOUNDED.pals+Problem12_label01.c@4613@F@init@tmp?1!0&0#65| (_ BitVec 32))

(declare-const |c:pals_lcr.6.ufo.UNBOUNDED.pals+Problem12_label01.c@4613@F@init@tmp?1!0&0#67| (_ BitVec 32))

(declare-const |c:pals_lcr.6.ufo.UNBOUNDED.pals+Problem12_label01.c@4613@F@init@tmp?1!0&0#69| (_ BitVec 32))

(declare-const |c:pals_lcr.6.ufo.UNBOUNDED.pals+Problem12_label01.c@4613@F@init@tmp?1!0&0#71| (_ BitVec 32))

(declare-const |c:pals_lcr.6.ufo.UNBOUNDED.pals+Problem12_label01.c@4613@F@init@tmp?1!0&0#73| (_ BitVec 32))

(declare-const |c:pals_lcr.6.ufo.UNBOUNDED.pals+Problem12_label01.c@4613@F@init@tmp?1!0&0#75| (_ BitVec 32))

(declare-const |c:pals_lcr.6.ufo.UNBOUNDED.pals+Problem12_label01.c@4613@F@init@tmp?1!0&0#77| (_ BitVec 32))

(declare-const |c:pals_lcr.6.ufo.UNBOUNDED.pals+Problem12_label01.c@4613@F@init@tmp?1!0&0#79| (_ BitVec 32))

(declare-const |c:pals_lcr.6.ufo.UNBOUNDED.pals+Problem12_label01.c@4613@F@init@tmp?1!0&0#81| (_ BitVec 32))

(declare-const |c:pals_lcr.6.ufo.UNBOUNDED.pals+Problem12_label01.c@13875@F@main1@i2?1!0&0#1| (_ BitVec 32))

(declare-const |c:pals_lcr.6.ufo.UNBOUNDED.pals+Problem12_label01.c@1254@F@assume_abort_if_not@cond?1!0&0#1| (_ BitVec 32))

(declare-const |goto_symex::guard?0!0&0#42| (_ BitVec 1))

(declare-const |goto_symex::guard?0!0&0#43| (_ BitVec 1))

(declare-const |c:@r1&0#4| (_ BitVec 8))

(declare-const |c:@r1&0#5| (_ BitVec 8))

(declare-const |c:@r1&0#6| (_ BitVec 8))

(declare-const |c:@r1&0#7| (_ BitVec 8))

(declare-const |goto_symex::guard?0!0&0#44| (_ BitVec 1))

(declare-const |goto_symex::guard?0!0&0#45| (_ BitVec 1))

(declare-const |goto_symex::guard?0!0&0#46| (_ BitVec 1))

(declare-const |goto_symex::guard?0!0&0#47| (_ BitVec 1))

(declare-const |goto_symex::guard?0!0&0#48| (_ BitVec 1))

(declare-const |c:pals_lcr.6.ufo.UNBOUNDED.pals+Problem12_label01.c@13272@F@check@tmp?1!0&0#5| (_ BitVec 32))

(declare-const |c:pals_lcr.6.ufo.UNBOUNDED.pals+Problem12_label01.c@13272@F@check@tmp?1!0&0#6| (_ BitVec 32))

(declare-const |c:pals_lcr.6.ufo.UNBOUNDED.pals+Problem12_label01.c@13272@F@check@tmp?1!0&0#8| (_ BitVec 32))

(declare-const |c:pals_lcr.6.ufo.UNBOUNDED.pals+Problem12_label01.c@13272@F@check@tmp?1!0&0#10| (_ BitVec 32))

(declare-const |c:pals_lcr.6.ufo.UNBOUNDED.pals+Problem12_label01.c@13864@F@main1@c1?1!0&0#2| (_ BitVec 32))

(declare-const |c:pals_lcr.6.ufo.UNBOUNDED.pals+Problem12_label01.c@15455@F@assert@arg?1!0&0#1| (_ BitVec 1))

(declare-const |execution_statet::guard_exec?0!0| (_ BitVec 1))

(declare-const |c:pals_lcr.6.ufo.UNBOUNDED.pals+Problem12_label01.c@219181@F@main2@input?1!0&0#1| (_ BitVec 32))

(declare-const |nondet$symex::nondet53| (_ BitVec 32))

(declare-const |goto_symex::guard?0!0&0#49| (_ BitVec 1))

(define-fun $e1 () (_ BitVec 24) 

 (ite 

  (= #b1 

   ((_ extract 7 7) |c:@id1&0#2|)) #b111111111111111111111111 #b000000000000000000000000))

(define-fun $e2 () (_ BitVec 1) 

 ((_ extract 7 7) |c:@st1&0#2|))

(define-fun $e3 () (_ BitVec 24) 

 (ite 

  (= #b1 

   ((_ extract 7 7) |c:@id2&0#2|)) #b111111111111111111111111 #b000000000000000000000000))

(define-fun $e4 () (_ BitVec 1) 

 ((_ extract 7 7) |c:@st2&0#2|))

(define-fun $e5 () (_ BitVec 24) 

 (ite 

  (= #b1 

   ((_ extract 7 7) |c:@id3&0#2|)) #b111111111111111111111111 #b000000000000000000000000))

(define-fun $e6 () (_ BitVec 1) 

 ((_ extract 7 7) |c:@st3&0#2|))

(define-fun $e7 () (_ BitVec 24) 

 (ite 

  (= #b1 

   ((_ extract 7 7) |c:@id4&0#2|)) #b111111111111111111111111 #b000000000000000000000000))

(define-fun $e8 () (_ BitVec 1) 

 ((_ extract 7 7) |c:@st4&0#2|))

(define-fun $e9 () (_ BitVec 24) 

 (ite 

  (= #b1 

   ((_ extract 7 7) |c:@id5&0#2|)) #b111111111111111111111111 #b000000000000000000000000))

(define-fun $e10 () (_ BitVec 1) 

 ((_ extract 7 7) |c:@st5&0#2|))

(define-fun $e11 () (_ BitVec 24) 

 (ite 

  (= #b1 

   ((_ extract 7 7) |c:@id6&0#2|)) #b111111111111111111111111 #b000000000000000000000000))

(define-fun $e12 () (_ BitVec 1) 

 ((_ extract 7 7) |c:@st6&0#2|))

(define-fun $e13 () (_ BitVec 32) 

 (bvadd 

  (concat 

   (ite 

    (= #b1 $e12) #b111111111111111111111111 #b000000000000000000000000) |c:@st6&0#2|) 

  (bvadd 

   (concat 

    (ite 

     (= #b1 $e10) #b111111111111111111111111 #b000000000000000000000000) |c:@st5&0#2|) 

   (bvadd 

    (concat 

     (ite 

      (= #b1 $e8) #b111111111111111111111111 #b000000000000000000000000) |c:@st4&0#2|) 

    (bvadd 

     (concat 

      (ite 

       (= #b1 $e6) #b111111111111111111111111 #b000000000000000000000000) |c:@st3&0#2|) 

     (bvadd 

      (concat 

       (ite 

        (= #b1 $e2) #b111111111111111111111111 #b000000000000000000000000) |c:@st1&0#2|) 

      (concat 

       (ite 

        (= #b1 $e4) #b111111111111111111111111 #b000000000000000000000000) |c:@st2&0#2|)))))))

(define-fun $e14 () Bool 

 (bvslt 

  (concat #b000000000000000000000000 |c:@r1&0#7|) #b00000000000000000000000000000110))

(define-fun $e15 () (_ BitVec 1) 

 (bvand 

  (bvnot 

   (bvand |goto_symex::guard?0!0&0#1| |goto_symex::guard?0!0&0#42|)) 

  (bvnot 

   (bvand |goto_symex::guard?0!0&0#1| 

    (bvnot |c:pals_lcr.6.ufo.UNBOUNDED.pals+Problem12_label01.c@15455@F@assert@arg?1!0&0#1|)))))

(assert 

 (= __ESBMC_ptr_obj_start_0 #b0000000000000000000000000000000000000000000000000000000000000000))

(assert 

 (= #b0000000000000000000000000000000000000000000000000000000000000000 __ESBMC_ptr_obj_end_0))

(assert 

 (= __ESBMC_ptr_obj_start_1 #b0000000000000000000000000000000000000000000000000000000000000001))

(assert 

 (= #b1111111111111111111111111111111111111111111111111111111111111111 __ESBMC_ptr_obj_end_1))

(assert 

 (= __ESBMC_ptr_obj_end_0 |smt_conv::__ESBMC_ptr_addr_range_0..end0|))

(assert 

 (= __ESBMC_ptr_obj_start_0 |smt_conv::__ESBMC_ptr_addr_range_0..start0|))

(assert 

 (= __ESBMC_ptr_obj_end_1 |smt_conv::__ESBMC_ptr_addr_range_1..end0|))

(assert 

 (= __ESBMC_ptr_obj_start_1 |smt_conv::__ESBMC_ptr_addr_range_1..start0|))

(assert 

 (= |smt_conv::smt_conv::collate_array_vals::3..end0| |smt_conv::smt_conv::collate_array_vals::4..end0|))

(assert 

 (= |smt_conv::smt_conv::collate_array_vals::3..start0| |smt_conv::smt_conv::collate_array_vals::4..start0|))

(assert 

 (= __ESBMC_ptr_obj_end_0 |smt_conv::smt_conv::collate_array_vals::7..end0|))

(assert 

 (= __ESBMC_ptr_obj_start_0 |smt_conv::smt_conv::collate_array_vals::7..start0|))

(assert 

 (= |c:@F@main::$tmp::return_value$___VERIFIER_nondet_int$1?1!0&0#1| |nondet$symex::nondet27|))

(assert 

 (= |goto_symex::guard?0!0&0#1| 

  (bvnot 

   (ite 

    (= #b00000000000000000000000000000000 |c:@F@main::$tmp::return_value$___VERIFIER_nondet_int$1?1!0&0#1|) #b1 #b0))))

(assert 

 (= |c:@r1&0#2| |nondet$symex::nondet28|))

(assert 

 (= |c:@id1&0#2| |nondet$symex::nondet29|))

(assert 

 (= |c:@st1&0#2| |nondet$symex::nondet30|))

(assert 

 (= |c:@send1&0#2| |nondet$symex::nondet31|))

(assert 

 (= |c:@mode1&0#2| |nondet$symex::nondet32|))

(assert 

 (= |c:@id2&0#2| |nondet$symex::nondet33|))

(assert 

 (= |c:@st2&0#2| |nondet$symex::nondet34|))

(assert 

 (= |c:@send2&0#2| |nondet$symex::nondet35|))

(assert 

 (= |c:@mode2&0#2| |nondet$symex::nondet36|))

(assert 

 (= |c:@id3&0#2| |nondet$symex::nondet37|))

(assert 

 (= |c:@st3&0#2| |nondet$symex::nondet38|))

(assert 

 (= |c:@send3&0#2| |nondet$symex::nondet39|))

(assert 

 (= |c:@mode3&0#2| |nondet$symex::nondet40|))

(assert 

 (= |c:@id4&0#2| |nondet$symex::nondet41|))

(assert 

 (= |c:@st4&0#2| |nondet$symex::nondet42|))

(assert 

 (= |c:@send4&0#2| |nondet$symex::nondet43|))

(assert 

 (= |c:@mode4&0#2| |nondet$symex::nondet44|))

(assert 

 (= |c:@id5&0#2| |nondet$symex::nondet45|))

(assert 

 (= |c:@st5&0#2| |nondet$symex::nondet46|))

(assert 

 (= |c:@send5&0#2| |nondet$symex::nondet47|))

(assert 

 (= |c:@mode5&0#2| |nondet$symex::nondet48|))

(assert 

 (= |c:@id6&0#2| |nondet$symex::nondet49|))

(assert 

 (= |c:@st6&0#2| |nondet$symex::nondet50|))

(assert 

 (= |c:@send6&0#2| |nondet$symex::nondet51|))

(assert 

 (= |c:@mode6&0#2| |nondet$symex::nondet52|))

(assert 

 (= |goto_symex::guard?0!0&0#2| 

  (ite 

   (= |c:@r1&0#2| #b00000000) #b1 #b0)))

(assert 

 (= |goto_symex::guard?0!0&0#3| 

  (bvnot 

   (ite 

    (bvslt 

     (concat $e1 |c:@id1&0#2|) #b00000000000000000000000000000000) #b1 #b0))))

(assert 

 (= |goto_symex::guard?0!0&0#4| 

  (bvand 

   (bvnot $e2) 

   (ite 

    (= |c:@st1&0#2| #b00000000) #b1 #b0))))

(assert 

 (= |goto_symex::guard?0!0&0#5| 

  (ite 

   (and 

    (= |c:@id1&0#2| |c:@send1&0#2|) 

    (= $e1 

     (ite 

      (= #b1 

       ((_ extract 7 7) |c:@send1&0#2|)) #b111111111111111111111111 #b000000000000000000000000))) #b1 #b0)))

(assert 

 (= |c:@mode1&0#2| 

  (bvnot |goto_symex::guard?0!0&0#6|)))

(assert 

 (= |goto_symex::guard?0!0&0#7| 

  (bvnot 

   (ite 

    (bvslt 

     (concat $e3 |c:@id2&0#2|) #b00000000000000000000000000000000) #b1 #b0))))

(assert 

 (= |goto_symex::guard?0!0&0#8| 

  (bvand 

   (bvnot $e4) 

   (ite 

    (= |c:@st2&0#2| #b00000000) #b1 #b0))))

(assert 

 (= |goto_symex::guard?0!0&0#9| 

  (ite 

   (and 

    (= |c:@id2&0#2| |c:@send2&0#2|) 

    (= $e3 

     (ite 

      (= #b1 

       ((_ extract 7 7) |c:@send2&0#2|)) #b111111111111111111111111 #b000000000000000000000000))) #b1 #b0)))

(assert 

 (= |c:@mode2&0#2| 

  (bvnot |goto_symex::guard?0!0&0#10|)))

(assert 

 (= |goto_symex::guard?0!0&0#11| 

  (bvnot 

   (ite 

    (bvslt 

     (concat $e5 |c:@id3&0#2|) #b00000000000000000000000000000000) #b1 #b0))))

(assert 

 (= |goto_symex::guard?0!0&0#12| 

  (bvand 

   (bvnot $e6) 

   (ite 

    (= |c:@st3&0#2| #b00000000) #b1 #b0))))

(assert 

 (= |goto_symex::guard?0!0&0#13| 

  (ite 

   (and 

    (= |c:@id3&0#2| |c:@send3&0#2|) 

    (= $e5 

     (ite 

      (= #b1 

       ((_ extract 7 7) |c:@send3&0#2|)) #b111111111111111111111111 #b000000000000000000000000))) #b1 #b0)))

(assert 

 (= |c:@mode3&0#2| 

  (bvnot |goto_symex::guard?0!0&0#14|)))

(assert 

 (= |goto_symex::guard?0!0&0#15| 

  (bvnot 

   (ite 

    (bvslt 

     (concat $e7 |c:@id4&0#2|) #b00000000000000000000000000000000) #b1 #b0))))

(assert 

 (= |goto_symex::guard?0!0&0#16| 

  (bvand 

   (bvnot $e8) 

   (ite 

    (= |c:@st4&0#2| #b00000000) #b1 #b0))))

(assert 

 (= |goto_symex::guard?0!0&0#17| 

  (ite 

   (and 

    (= |c:@id4&0#2| |c:@send4&0#2|) 

    (= $e7 

     (ite 

      (= #b1 

       ((_ extract 7 7) |c:@send4&0#2|)) #b111111111111111111111111 #b000000000000000000000000))) #b1 #b0)))

(assert 

 (= |c:@mode4&0#2| 

  (bvnot |goto_symex::guard?0!0&0#18|)))

(assert 

 (= |goto_symex::guard?0!0&0#19| 

  (bvnot 

   (ite 

    (bvslt 

     (concat $e9 |c:@id5&0#2|) #b00000000000000000000000000000000) #b1 #b0))))

(assert 

 (= |goto_symex::guard?0!0&0#20| 

  (bvand 

   (bvnot $e10) 

   (ite 

    (= |c:@st5&0#2| #b00000000) #b1 #b0))))

(assert 

 (= |goto_symex::guard?0!0&0#21| 

  (ite 

   (and 

    (= |c:@id5&0#2| |c:@send5&0#2|) 

    (= $e9 

     (ite 

      (= #b1 

       ((_ extract 7 7) |c:@send5&0#2|)) #b111111111111111111111111 #b000000000000000000000000))) #b1 #b0)))

(assert 

 (= |c:@mode5&0#2| 

  (bvnot |goto_symex::guard?0!0&0#22|)))

(assert 

 (= |goto_symex::guard?0!0&0#23| 

  (bvnot 

   (ite 

    (bvslt 

     (concat $e11 |c:@id6&0#2|) #b00000000000000000000000000000000) #b1 #b0))))

(assert 

 (= |goto_symex::guard?0!0&0#24| 

  (bvand 

   (bvnot $e12) 

   (ite 

    (= |c:@st6&0#2| #b00000000) #b1 #b0))))

(assert 

 (= |goto_symex::guard?0!0&0#25| 

  (ite 

   (and 

    (= |c:@id6&0#2| |c:@send6&0#2|) 

    (= $e11 

     (ite 

      (= #b1 

       ((_ extract 7 7) |c:@send6&0#2|)) #b111111111111111111111111 #b000000000000000000000000))) #b1 #b0)))

(assert 

 (= |c:@mode6&0#2| 

  (bvnot |goto_symex::guard?0!0&0#26|)))

(assert 

 (= |goto_symex::guard?0!0&0#27| 

  (bvnot 

   (ite 

    (and 

     (= |c:@id1&0#2| |c:@id2&0#2|) 

     (= $e1 $e3)) #b1 #b0))))

(assert 

 (= |goto_symex::guard?0!0&0#28| 

  (bvnot 

   (ite 

    (and 

     (= |c:@id1&0#2| |c:@id3&0#2|) 

     (= $e1 $e5)) #b1 #b0))))

(assert 

 (= |goto_symex::guard?0!0&0#29| 

  (bvnot 

   (ite 

    (and 

     (= |c:@id1&0#2| |c:@id4&0#2|) 

     (= $e1 $e7)) #b1 #b0))))

(assert 

 (= |goto_symex::guard?0!0&0#30| 

  (bvnot 

   (ite 

    (and 

     (= |c:@id1&0#2| |c:@id5&0#2|) 

     (= $e1 $e9)) #b1 #b0))))

(assert 

 (= |goto_symex::guard?0!0&0#31| 

  (bvnot 

   (ite 

    (and 

     (= |c:@id1&0#2| |c:@id6&0#2|) 

     (= $e1 $e11)) #b1 #b0))))

(assert 

 (= |goto_symex::guard?0!0&0#32| 

  (bvnot 

   (ite 

    (and 

     (= |c:@id2&0#2| |c:@id3&0#2|) 

     (= $e3 $e5)) #b1 #b0))))

(assert 

 (= |goto_symex::guard?0!0&0#33| 

  (bvnot 

   (ite 

    (and 

     (= |c:@id2&0#2| |c:@id4&0#2|) 

     (= $e3 $e7)) #b1 #b0))))

(assert 

 (= |goto_symex::guard?0!0&0#34| 

  (bvnot 

   (ite 

    (and 

     (= |c:@id2&0#2| |c:@id5&0#2|) 

     (= $e3 $e9)) #b1 #b0))))

(assert 

 (= |goto_symex::guard?0!0&0#35| 

  (bvnot 

   (ite 

    (and 

     (= |c:@id2&0#2| |c:@id6&0#2|) 

     (= $e3 $e11)) #b1 #b0))))

(assert 

 (= |goto_symex::guard?0!0&0#36| 

  (bvnot 

   (ite 

    (and 

     (= |c:@id3&0#2| |c:@id4&0#2|) 

     (= $e5 $e7)) #b1 #b0))))

(assert 

 (= |goto_symex::guard?0!0&0#37| 

  (bvnot 

   (ite 

    (and 

     (= |c:@id3&0#2| |c:@id5&0#2|) 

     (= $e5 $e9)) #b1 #b0))))

(assert 

 (= |goto_symex::guard?0!0&0#38| 

  (bvnot 

   (ite 

    (and 

     (= |c:@id3&0#2| |c:@id6&0#2|) 

     (= $e5 $e11)) #b1 #b0))))

(assert 

 (= |goto_symex::guard?0!0&0#39| 

  (bvnot 

   (ite 

    (and 

     (= |c:@id4&0#2| |c:@id5&0#2|) 

     (= $e7 $e9)) #b1 #b0))))

(assert 

 (= |goto_symex::guard?0!0&0#40| 

  (bvnot 

   (ite 

    (and 

     (= |c:@id4&0#2| |c:@id6&0#2|) 

     (= $e7 $e11)) #b1 #b0))))

(assert 

 (= |goto_symex::guard?0!0&0#41| 

  (bvnot 

   (ite 

    (and 

     (= |c:@id5&0#2| |c:@id6&0#2|) 

     (= $e9 $e11)) #b1 #b0))))

(assert 

 (= |c:pals_lcr.6.ufo.UNBOUNDED.pals+Problem12_label01.c@4613@F@init@tmp?1!0&0#3| 

  (ite 

   (= #b1 |goto_symex::guard?0!0&0#41|) #b00000000000000000000000000000001 #b00000000000000000000000000000000)))

(assert 

 (= |c:pals_lcr.6.ufo.UNBOUNDED.pals+Problem12_label01.c@4613@F@init@tmp?1!0&0#5| 

  (ite 

   (= #b1 |goto_symex::guard?0!0&0#40|) |c:pals_lcr.6.ufo.UNBOUNDED.pals+Problem12_label01.c@4613@F@init@tmp?1!0&0#3| #b00000000000000000000000000000000)))

(assert 

 (= |c:pals_lcr.6.ufo.UNBOUNDED.pals+Problem12_label01.c@4613@F@init@tmp?1!0&0#7| 

  (ite 

   (= #b1 |goto_symex::guard?0!0&0#39|) |c:pals_lcr.6.ufo.UNBOUNDED.pals+Problem12_label01.c@4613@F@init@tmp?1!0&0#5| #b00000000000000000000000000000000)))

(assert 

 (= |c:pals_lcr.6.ufo.UNBOUNDED.pals+Problem12_label01.c@4613@F@init@tmp?1!0&0#9| 

  (ite 

   (= #b1 |goto_symex::guard?0!0&0#38|) |c:pals_lcr.6.ufo.UNBOUNDED.pals+Problem12_label01.c@4613@F@init@tmp?1!0&0#7| #b00000000000000000000000000000000)))

(assert 

 (= |c:pals_lcr.6.ufo.UNBOUNDED.pals+Problem12_label01.c@4613@F@init@tmp?1!0&0#11| 

  (ite 

   (= #b1 |goto_symex::guard?0!0&0#37|) |c:pals_lcr.6.ufo.UNBOUNDED.pals+Problem12_label01.c@4613@F@init@tmp?1!0&0#9| #b00000000000000000000000000000000)))

(assert 

 (= |c:pals_lcr.6.ufo.UNBOUNDED.pals+Problem12_label01.c@4613@F@init@tmp?1!0&0#13| 

  (ite 

   (= #b1 |goto_symex::guard?0!0&0#36|) |c:pals_lcr.6.ufo.UNBOUNDED.pals+Problem12_label01.c@4613@F@init@tmp?1!0&0#11| #b00000000000000000000000000000000)))

(assert 

 (= |c:pals_lcr.6.ufo.UNBOUNDED.pals+Problem12_label01.c@4613@F@init@tmp?1!0&0#15| 

  (ite 

   (= #b1 |goto_symex::guard?0!0&0#35|) |c:pals_lcr.6.ufo.UNBOUNDED.pals+Problem12_label01.c@4613@F@init@tmp?1!0&0#13| #b00000000000000000000000000000000)))

(assert 

 (= |c:pals_lcr.6.ufo.UNBOUNDED.pals+Problem12_label01.c@4613@F@init@tmp?1!0&0#17| 

  (ite 

   (= #b1 |goto_symex::guard?0!0&0#34|) |c:pals_lcr.6.ufo.UNBOUNDED.pals+Problem12_label01.c@4613@F@init@tmp?1!0&0#15| #b00000000000000000000000000000000)))

(assert 

 (= |c:pals_lcr.6.ufo.UNBOUNDED.pals+Problem12_label01.c@4613@F@init@tmp?1!0&0#19| 

  (ite 

   (= #b1 |goto_symex::guard?0!0&0#33|) |c:pals_lcr.6.ufo.UNBOUNDED.pals+Problem12_label01.c@4613@F@init@tmp?1!0&0#17| #b00000000000000000000000000000000)))

(assert 

 (= |c:pals_lcr.6.ufo.UNBOUNDED.pals+Problem12_label01.c@4613@F@init@tmp?1!0&0#21| 

  (ite 

   (= #b1 |goto_symex::guard?0!0&0#32|) |c:pals_lcr.6.ufo.UNBOUNDED.pals+Problem12_label01.c@4613@F@init@tmp?1!0&0#19| #b00000000000000000000000000000000)))

(assert 

 (= |c:pals_lcr.6.ufo.UNBOUNDED.pals+Problem12_label01.c@4613@F@init@tmp?1!0&0#23| 

  (ite 

   (= #b1 |goto_symex::guard?0!0&0#31|) |c:pals_lcr.6.ufo.UNBOUNDED.pals+Problem12_label01.c@4613@F@init@tmp?1!0&0#21| #b00000000000000000000000000000000)))

(assert 

 (= |c:pals_lcr.6.ufo.UNBOUNDED.pals+Problem12_label01.c@4613@F@init@tmp?1!0&0#25| 

  (ite 

   (= #b1 |goto_symex::guard?0!0&0#30|) |c:pals_lcr.6.ufo.UNBOUNDED.pals+Problem12_label01.c@4613@F@init@tmp?1!0&0#23| #b00000000000000000000000000000000)))

(assert 

 (= |c:pals_lcr.6.ufo.UNBOUNDED.pals+Problem12_label01.c@4613@F@init@tmp?1!0&0#27| 

  (ite 

   (= #b1 |goto_symex::guard?0!0&0#29|) |c:pals_lcr.6.ufo.UNBOUNDED.pals+Problem12_label01.c@4613@F@init@tmp?1!0&0#25| #b00000000000000000000000000000000)))

(assert 

 (= |c:pals_lcr.6.ufo.UNBOUNDED.pals+Problem12_label01.c@4613@F@init@tmp?1!0&0#29| 

  (ite 

   (= #b1 |goto_symex::guard?0!0&0#28|) |c:pals_lcr.6.ufo.UNBOUNDED.pals+Problem12_label01.c@4613@F@init@tmp?1!0&0#27| #b00000000000000000000000000000000)))

(assert 

 (= |c:pals_lcr.6.ufo.UNBOUNDED.pals+Problem12_label01.c@4613@F@init@tmp?1!0&0#31| 

  (ite 

   (= #b1 |goto_symex::guard?0!0&0#27|) |c:pals_lcr.6.ufo.UNBOUNDED.pals+Problem12_label01.c@4613@F@init@tmp?1!0&0#29| #b00000000000000000000000000000000)))

(assert 

 (= |c:pals_lcr.6.ufo.UNBOUNDED.pals+Problem12_label01.c@4613@F@init@tmp?1!0&0#33| 

  (ite 

   (= #b1 |goto_symex::guard?0!0&0#26|) |c:pals_lcr.6.ufo.UNBOUNDED.pals+Problem12_label01.c@4613@F@init@tmp?1!0&0#31| #b00000000000000000000000000000000)))

(assert 

 (= |c:pals_lcr.6.ufo.UNBOUNDED.pals+Problem12_label01.c@4613@F@init@tmp?1!0&0#35| 

  (ite 

   (= #b1 |goto_symex::guard?0!0&0#25|) |c:pals_lcr.6.ufo.UNBOUNDED.pals+Problem12_label01.c@4613@F@init@tmp?1!0&0#33| #b00000000000000000000000000000000)))

(assert 

 (= |c:pals_lcr.6.ufo.UNBOUNDED.pals+Problem12_label01.c@4613@F@init@tmp?1!0&0#37| 

  (ite 

   (= #b1 |goto_symex::guard?0!0&0#24|) |c:pals_lcr.6.ufo.UNBOUNDED.pals+Problem12_label01.c@4613@F@init@tmp?1!0&0#35| #b00000000000000000000000000000000)))

(assert 

 (= |c:pals_lcr.6.ufo.UNBOUNDED.pals+Problem12_label01.c@4613@F@init@tmp?1!0&0#39| 

  (ite 

   (= #b1 |goto_symex::guard?0!0&0#23|) |c:pals_lcr.6.ufo.UNBOUNDED.pals+Problem12_label01.c@4613@F@init@tmp?1!0&0#37| #b00000000000000000000000000000000)))

(assert 

 (= |c:pals_lcr.6.ufo.UNBOUNDED.pals+Problem12_label01.c@4613@F@init@tmp?1!0&0#41| 

  (ite 

   (= #b1 |goto_symex::guard?0!0&0#22|) |c:pals_lcr.6.ufo.UNBOUNDED.pals+Problem12_label01.c@4613@F@init@tmp?1!0&0#39| #b00000000000000000000000000000000)))

(assert 

 (= |c:pals_lcr.6.ufo.UNBOUNDED.pals+Problem12_label01.c@4613@F@init@tmp?1!0&0#43| 

  (ite 

   (= #b1 |goto_symex::guard?0!0&0#21|) |c:pals_lcr.6.ufo.UNBOUNDED.pals+Problem12_label01.c@4613@F@init@tmp?1!0&0#41| #b00000000000000000000000000000000)))

(assert 

 (= |c:pals_lcr.6.ufo.UNBOUNDED.pals+Problem12_label01.c@4613@F@init@tmp?1!0&0#45| 

  (ite 

   (= #b1 |goto_symex::guard?0!0&0#20|) |c:pals_lcr.6.ufo.UNBOUNDED.pals+Problem12_label01.c@4613@F@init@tmp?1!0&0#43| #b00000000000000000000000000000000)))

(assert 

 (= |c:pals_lcr.6.ufo.UNBOUNDED.pals+Problem12_label01.c@4613@F@init@tmp?1!0&0#47| 

  (ite 

   (= #b1 |goto_symex::guard?0!0&0#19|) |c:pals_lcr.6.ufo.UNBOUNDED.pals+Problem12_label01.c@4613@F@init@tmp?1!0&0#45| #b00000000000000000000000000000000)))

(assert 

 (= |c:pals_lcr.6.ufo.UNBOUNDED.pals+Problem12_label01.c@4613@F@init@tmp?1!0&0#49| 

  (ite 

   (= #b1 |goto_symex::guard?0!0&0#18|) |c:pals_lcr.6.ufo.UNBOUNDED.pals+Problem12_label01.c@4613@F@init@tmp?1!0&0#47| #b00000000000000000000000000000000)))

(assert 

 (= |c:pals_lcr.6.ufo.UNBOUNDED.pals+Problem12_label01.c@4613@F@init@tmp?1!0&0#51| 

  (ite 

   (= #b1 |goto_symex::guard?0!0&0#17|) |c:pals_lcr.6.ufo.UNBOUNDED.pals+Problem12_label01.c@4613@F@init@tmp?1!0&0#49| #b00000000000000000000000000000000)))

(assert 

 (= |c:pals_lcr.6.ufo.UNBOUNDED.pals+Problem12_label01.c@4613@F@init@tmp?1!0&0#53| 

  (ite 

   (= #b1 |goto_symex::guard?0!0&0#16|) |c:pals_lcr.6.ufo.UNBOUNDED.pals+Problem12_label01.c@4613@F@init@tmp?1!0&0#51| #b00000000000000000000000000000000)))

(assert 

 (= |c:pals_lcr.6.ufo.UNBOUNDED.pals+Problem12_label01.c@4613@F@init@tmp?1!0&0#55| 

  (ite 

   (= #b1 |goto_symex::guard?0!0&0#15|) |c:pals_lcr.6.ufo.UNBOUNDED.pals+Problem12_label01.c@4613@F@init@tmp?1!0&0#53| #b00000000000000000000000000000000)))

(assert 

 (= |c:pals_lcr.6.ufo.UNBOUNDED.pals+Problem12_label01.c@4613@F@init@tmp?1!0&0#57| 

  (ite 

   (= #b1 |goto_symex::guard?0!0&0#14|) |c:pals_lcr.6.ufo.UNBOUNDED.pals+Problem12_label01.c@4613@F@init@tmp?1!0&0#55| #b00000000000000000000000000000000)))

(assert 

 (= |c:pals_lcr.6.ufo.UNBOUNDED.pals+Problem12_label01.c@4613@F@init@tmp?1!0&0#59| 

  (ite 

   (= #b1 |goto_symex::guard?0!0&0#13|) |c:pals_lcr.6.ufo.UNBOUNDED.pals+Problem12_label01.c@4613@F@init@tmp?1!0&0#57| #b00000000000000000000000000000000)))

(assert 

 (= |c:pals_lcr.6.ufo.UNBOUNDED.pals+Problem12_label01.c@4613@F@init@tmp?1!0&0#61| 

  (ite 

   (= #b1 |goto_symex::guard?0!0&0#12|) |c:pals_lcr.6.ufo.UNBOUNDED.pals+Problem12_label01.c@4613@F@init@tmp?1!0&0#59| #b00000000000000000000000000000000)))

(assert 

 (= |c:pals_lcr.6.ufo.UNBOUNDED.pals+Problem12_label01.c@4613@F@init@tmp?1!0&0#63| 

  (ite 

   (= #b1 |goto_symex::guard?0!0&0#11|) |c:pals_lcr.6.ufo.UNBOUNDED.pals+Problem12_label01.c@4613@F@init@tmp?1!0&0#61| #b00000000000000000000000000000000)))

(assert 

 (= |c:pals_lcr.6.ufo.UNBOUNDED.pals+Problem12_label01.c@4613@F@init@tmp?1!0&0#65| 

  (ite 

   (= #b1 |goto_symex::guard?0!0&0#10|) |c:pals_lcr.6.ufo.UNBOUNDED.pals+Problem12_label01.c@4613@F@init@tmp?1!0&0#63| #b00000000000000000000000000000000)))

(assert 

 (= |c:pals_lcr.6.ufo.UNBOUNDED.pals+Problem12_label01.c@4613@F@init@tmp?1!0&0#67| 

  (ite 

   (= #b1 |goto_symex::guard?0!0&0#9|) |c:pals_lcr.6.ufo.UNBOUNDED.pals+Problem12_label01.c@4613@F@init@tmp?1!0&0#65| #b00000000000000000000000000000000)))

(assert 

 (= |c:pals_lcr.6.ufo.UNBOUNDED.pals+Problem12_label01.c@4613@F@init@tmp?1!0&0#69| 

  (ite 

   (= #b1 |goto_symex::guard?0!0&0#8|) |c:pals_lcr.6.ufo.UNBOUNDED.pals+Problem12_label01.c@4613@F@init@tmp?1!0&0#67| #b00000000000000000000000000000000)))

(assert 

 (= |c:pals_lcr.6.ufo.UNBOUNDED.pals+Problem12_label01.c@4613@F@init@tmp?1!0&0#71| 

  (ite 

   (= #b1 |goto_symex::guard?0!0&0#7|) |c:pals_lcr.6.ufo.UNBOUNDED.pals+Problem12_label01.c@4613@F@init@tmp?1!0&0#69| #b00000000000000000000000000000000)))

(assert 

 (= |c:pals_lcr.6.ufo.UNBOUNDED.pals+Problem12_label01.c@4613@F@init@tmp?1!0&0#73| 

  (ite 

   (= #b1 |goto_symex::guard?0!0&0#6|) |c:pals_lcr.6.ufo.UNBOUNDED.pals+Problem12_label01.c@4613@F@init@tmp?1!0&0#71| #b00000000000000000000000000000000)))

(assert 

 (= |c:pals_lcr.6.ufo.UNBOUNDED.pals+Problem12_label01.c@4613@F@init@tmp?1!0&0#75| 

  (ite 

   (= #b1 |goto_symex::guard?0!0&0#5|) |c:pals_lcr.6.ufo.UNBOUNDED.pals+Problem12_label01.c@4613@F@init@tmp?1!0&0#73| #b00000000000000000000000000000000)))

(assert 

 (= |c:pals_lcr.6.ufo.UNBOUNDED.pals+Problem12_label01.c@4613@F@init@tmp?1!0&0#77| 

  (ite 

   (= #b1 |goto_symex::guard?0!0&0#4|) |c:pals_lcr.6.ufo.UNBOUNDED.pals+Problem12_label01.c@4613@F@init@tmp?1!0&0#75| #b00000000000000000000000000000000)))

(assert 

 (= |c:pals_lcr.6.ufo.UNBOUNDED.pals+Problem12_label01.c@4613@F@init@tmp?1!0&0#79| 

  (ite 

   (= #b1 |goto_symex::guard?0!0&0#3|) |c:pals_lcr.6.ufo.UNBOUNDED.pals+Problem12_label01.c@4613@F@init@tmp?1!0&0#77| #b00000000000000000000000000000000)))

(assert 

 (= |c:pals_lcr.6.ufo.UNBOUNDED.pals+Problem12_label01.c@4613@F@init@tmp?1!0&0#81| 

  (ite 

   (= #b1 |goto_symex::guard?0!0&0#2|) |c:pals_lcr.6.ufo.UNBOUNDED.pals+Problem12_label01.c@4613@F@init@tmp?1!0&0#79| #b00000000000000000000000000000000)))

(assert 

 (= |c:pals_lcr.6.ufo.UNBOUNDED.pals+Problem12_label01.c@4613@F@init@tmp?1!0&0#81| |c:pals_lcr.6.ufo.UNBOUNDED.pals+Problem12_label01.c@13875@F@main1@i2?1!0&0#1|))

(assert 

 (= |c:pals_lcr.6.ufo.UNBOUNDED.pals+Problem12_label01.c@13875@F@main1@i2?1!0&0#1| |c:pals_lcr.6.ufo.UNBOUNDED.pals+Problem12_label01.c@1254@F@assume_abort_if_not@cond?1!0&0#1|))

(assert 

 (= |goto_symex::guard?0!0&0#42| 

  (ite 

   (= #b00000000000000000000000000000000 |c:pals_lcr.6.ufo.UNBOUNDED.pals+Problem12_label01.c@1254@F@assume_abort_if_not@cond?1!0&0#1|) #b1 #b0)))

(assert 

 (= |goto_symex::guard?0!0&0#43| 

  (ite 

   (= |c:@r1&0#2| #b11111111) #b1 #b0)))

(assert 

 (= |c:@r1&0#4| 

  (ite 

   (= #b1 |goto_symex::guard?0!0&0#43|) #b00000101 |c:@r1&0#2|)))

(assert 

 (= |c:@r1&0#5| 

  ((_ extract 7 0) 

   (bvadd #b00000000000000000000000000000001 

    (concat #b000000000000000000000000 |c:@r1&0#4|)))))

(assert 

 (= |c:@r1&0#2| |c:@r1&0#6|))

(assert 

 (= |c:@r1&0#7| 

  (ite 

   (= #b1 |c:@mode1&0#2|) |c:@r1&0#5| |c:@r1&0#6|)))

(assert 

 (= |goto_symex::guard?0!0&0#44| 

  (bvnot 

   (ite 

    (bvslt #b00000000000000000000000000000001 $e13) #b1 #b0))))

(assert 

 (= |goto_symex::guard?0!0&0#45| 

  (bvnot 

   (ite $e14 #b1 #b0))))

(assert 

 (= |goto_symex::guard?0!0&0#46| 

  (ite 

   (= #b00000000000000000000000000000000 $e13) #b1 #b0)))

(assert 

 (= 

  (ite $e14 #b1 #b0) |goto_symex::guard?0!0&0#47|))

(assert 

 (= |goto_symex::guard?0!0&0#48| 

  (ite 

   (= #b00000000000000000000000000000001 $e13) #b1 #b0)))

(assert 

 (= |c:pals_lcr.6.ufo.UNBOUNDED.pals+Problem12_label01.c@13272@F@check@tmp?1!0&0#5| 

  (ite 

   (= #b1 |goto_symex::guard?0!0&0#48|) #b00000000000000000000000000000001 #b00000000000000000000000000000000)))

(assert 

 (= |c:pals_lcr.6.ufo.UNBOUNDED.pals+Problem12_label01.c@13272@F@check@tmp?1!0&0#6| 

  (ite 

   (= #b1 |goto_symex::guard?0!0&0#47|) #b00000000000000000000000000000001 |c:pals_lcr.6.ufo.UNBOUNDED.pals+Problem12_label01.c@13272@F@check@tmp?1!0&0#5|)))

(assert 

 (= |c:pals_lcr.6.ufo.UNBOUNDED.pals+Problem12_label01.c@13272@F@check@tmp?1!0&0#8| 

  (ite 

   (= #b1 

    (bvand 

     (bvnot |goto_symex::guard?0!0&0#45|) 

     (bvnot |goto_symex::guard?0!0&0#46|))) #b00000000000000000000000000000000 |c:pals_lcr.6.ufo.UNBOUNDED.pals+Problem12_label01.c@13272@F@check@tmp?1!0&0#6|)))

(assert 

 (= |c:pals_lcr.6.ufo.UNBOUNDED.pals+Problem12_label01.c@13272@F@check@tmp?1!0&0#10| 

  (ite 

   (= #b1 |goto_symex::guard?0!0&0#44|) |c:pals_lcr.6.ufo.UNBOUNDED.pals+Problem12_label01.c@13272@F@check@tmp?1!0&0#8| #b00000000000000000000000000000000)))

(assert 

 (= |c:pals_lcr.6.ufo.UNBOUNDED.pals+Problem12_label01.c@13272@F@check@tmp?1!0&0#10| |c:pals_lcr.6.ufo.UNBOUNDED.pals+Problem12_label01.c@13864@F@main1@c1?1!0&0#2|))

(assert 

 (= |c:pals_lcr.6.ufo.UNBOUNDED.pals+Problem12_label01.c@15455@F@assert@arg?1!0&0#1| 

  (bvnot 

   (ite 

    (= #b00000000000000000000000000000000 |c:pals_lcr.6.ufo.UNBOUNDED.pals+Problem12_label01.c@13864@F@main1@c1?1!0&0#2|) #b1 #b0))))

(assert 

 (= |c:pals_lcr.6.ufo.UNBOUNDED.pals+Problem12_label01.c@219181@F@main2@input?1!0&0#1| |nondet$symex::nondet53|))

(assert 

 (= |goto_symex::guard?0!0&0#49| 

  (ite 

   (and 

    (not 

     (= |c:pals_lcr.6.ufo.UNBOUNDED.pals+Problem12_label01.c@219181@F@main2@input?1!0&0#1| #b00000000000000000000000000000010)) 

    (not 

     (= #b00000000000000000000000000000001 |c:pals_lcr.6.ufo.UNBOUNDED.pals+Problem12_label01.c@219181@F@main2@input?1!0&0#1|)) 

    (not 

     (= |c:pals_lcr.6.ufo.UNBOUNDED.pals+Problem12_label01.c@219181@F@main2@input?1!0&0#1| #b00000000000000000000000000000011)) 

    (not 

     (= |c:pals_lcr.6.ufo.UNBOUNDED.pals+Problem12_label01.c@219181@F@main2@input?1!0&0#1| #b00000000000000000000000000000100)) 

    (not 

     (= |c:pals_lcr.6.ufo.UNBOUNDED.pals+Problem12_label01.c@219181@F@main2@input?1!0&0#1| #b00000000000000000000000000000101)) 

    (not 

     (= #b00000000000000000000000000000110 |c:pals_lcr.6.ufo.UNBOUNDED.pals+Problem12_label01.c@219181@F@main2@input?1!0&0#1|))) #b1 #b0)))

(assert (= 

 (bvnot 

  (bvand 

   (bvnot 

    (bvand $e15 

     (bvand |goto_symex::guard?0!0&0#1| |execution_statet::guard_exec?0!0|))) 

   (bvnot 

    (bvand $e15 

     (bvand |execution_statet::guard_exec?0!0| 

      (bvand 

       (bvnot |goto_symex::guard?0!0&0#1|) 

       (bvnot |goto_symex::guard?0!0&0#49|))))))) #b1))

(check-sat)

(exit)
